n_res = 4;
rc = [ 28, 40, 43, 39 ];
n_tasks = 30;
d = [ 3, 5, 9, 10, 1, 7, 2, 10, 9, 10, 5, 2, 5, 7, 7, 7, 9, 10, 6, 6, 9, 9, 6, 9, 10, 4, 10, 2, 10, 6 ];
rr = [| 9, 0, 6, 0, 10, 0, 9, 6, 9, 0, 0, 0, 8, 0, 5, 0, 0, 4, 1, 8, 7, 3, 5, 6, 0, 7, 1, 6, 10, 6
      | 0, 10, 2, 0, 1, 0, 8, 8, 3, 7, 5, 3, 10, 0, 6, 0, 1, 9, 8, 5, 8, 0, 4, 8, 2, 4, 1, 3, 10, 0
      | 9, 3, 2, 10, 2, 0, 3, 2, 9, 5, 2, 0, 10, 5, 0, 7, 3, 10, 10, 3, 4, 8, 10, 5, 4, 3, 0, 9, 5, 3
      | 0, 0, 0, 1, 0, 2, 10, 5, 9, 9, 6, 0, 8, 0, 10, 8, 8, 1, 8, 0, 3, 2, 0, 2, 1, 5, 8, 7, 10, 7 |];
suc = [ { 2 }, 
        { 1 }, 
        { 4 }, 
        { 3 }, 
        { 6 }, 
        { 5 }, 
        { 8 }, 
        { 7 }, 
        { 10 }, 
        { 9 }, 
        { 12 }, 
        { 11 }, 
        { 14 }, 
        { 13 }, 
        { 16 }, 
        { 15 }, 
        { 18 }, 
        { 17 }, 
        { 20 }, 
        { 19 }, 
        { 22 }, 
        { 21 }, 
        { 24 }, 
        { 23 }, 
        { 26 }, 
        { 25 }, 
        { 28 }, 
        { 27 }, 
        { 30 }, 
        { 29 }]; 
